225,258
425,323
512,237
751,-38
600,246
718,292
705,389
755,634
742,791
602,909
927,745
1028,229
923,582
709,583
600,566
533,383
561,406
593,285
593,392
385,360
237,476
390,617
611,850
756,880
436,887
399,794
914,639
1069,688
